n = 63;
k = 1;
roles = [
{f, g},
{f, g},
{d, f},
{g, m},
{d, g},
{m, f},
{m, f},
{d, m},
{g, m},
{m, g},
{d, g},
{m, f},
{g, f},
{d, f},
{f, d},
{g, f},
{g, f},
{f, d},
{f, g},
{m, d},
{m, d},
{m, f},
{g, d},
{g, m},
{m, f},
{m, g},
{d, g},
{d, g},
{g, d},
{d, f},
{f, d},
{f, m},
{d, g},
{m, d},
{m, g},
{g, m},
{g, f},
{m, d},
{g, d},
{d, m},
{d, g},
{f, d},
{f, g},
{f, m},
{m, d},
{f, g},
{f, d},
{f, d},
{f, d},
{f, d},
{m, f},
{f, g},
{g, d},
{d, m},
{m, g},
{m, g},
{d, g},
{d, f},
{d, f},
{d, f},
{f, g},
{d, g},
{g, m}
];
num_pairs = 5;
player1 = [46, 38, 47, 20, 58];
player2 = [40, 27, 1, 11, 54];
